Instance Name : rc202
Date : 2022-07-20
Solution
Route 1 : 64 19 23 21 48 18 76 51 49 22 20 24 25 77 75 58 83
Route 2 : 90 99 52 57 86 87 97 59 74 66
Route 3 : 69 88 53 9 10 13 17 60 98
Route 4 : 65 82 14 47 16 15 11 12 78 73 79 7 6 8 46 4 2 55 100 70
Route 5 : 81 61 68
Route 6 : 45 5 3 1 42 39 36 44 41 38 40 43 35 37 72 54 96 93 94 80
Route 7 : 71 67 62 84 56
Route 8 : 92 95 85 63 33 28 26 27 29 31 30 32 34 50 89 91
